
Gurobi 6.0.0 (linux64) logging started Wed Apr 29 14:10:24 2015


Gurobi 6.0.0 (linux64) logging started Wed Apr 29 14:11:07 2015


Gurobi 6.0.0 (linux64) logging started Wed Apr 29 14:14:51 2015


Gurobi 6.0.0 (linux64) logging started Wed Apr 29 14:16:06 2015


Gurobi 6.0.0 (linux64) logging started Wed Apr 29 14:20:03 2015


Gurobi 6.0.0 (linux64) logging started Wed Apr 29 14:21:44 2015


Gurobi 6.0.0 (linux64) logging started Wed Apr 29 14:32:40 2015


Gurobi 6.0.0 (linux64) logging started Wed Apr 29 14:35:09 2015


Gurobi 6.0.0 (linux64) logging started Wed Apr 29 14:36:57 2015


Gurobi 6.0.0 (linux64) logging started Wed Apr 29 14:38:34 2015


Gurobi 6.0.0 (linux64) logging started Wed Apr 29 14:43:39 2015


Gurobi 6.0.0 (linux64) logging started Wed Apr 29 14:46:42 2015


Gurobi 6.0.0 (linux64) logging started Wed Apr 29 14:48:38 2015


Gurobi 6.0.0 (linux64) logging started Wed Apr 29 14:49:39 2015


Gurobi 6.0.0 (linux64) logging started Wed Apr 29 15:00:21 2015


Gurobi 6.0.0 (linux64) logging started Wed Apr 29 15:03:39 2015


Gurobi 6.0.0 (linux64) logging started Wed Apr 29 15:33:25 2015


Gurobi 6.0.0 (linux64) logging started Wed Apr 29 15:34:30 2015


Gurobi 6.0.0 (linux64) logging started Wed Apr 29 15:36:33 2015


Gurobi 6.0.0 (linux64) logging started Wed Apr 29 15:39:30 2015


Gurobi 6.0.0 (linux64) logging started Wed Apr 29 15:41:56 2015


Gurobi 6.0.0 (linux64) logging started Wed Apr 29 16:57:36 2015


Gurobi 6.0.0 (linux64) logging started Wed Apr 29 17:00:54 2015


Gurobi 6.0.0 (linux64) logging started Wed Apr 29 17:01:00 2015


Gurobi 6.0.0 (linux64) logging started Wed Apr 29 17:03:36 2015


Gurobi 6.0.0 (linux64) logging started Wed Apr 29 17:05:01 2015


Gurobi 6.0.0 (linux64) logging started Fri May  1 14:07:42 2015


Gurobi 6.0.0 (linux64) logging started Fri May  1 14:10:57 2015


Gurobi 6.0.0 (linux64) logging started Fri May  1 14:14:07 2015


Gurobi 6.0.0 (linux64) logging started Fri May  1 14:17:19 2015


Gurobi 6.0.0 (linux64) logging started Fri May  1 14:35:47 2015


Gurobi 6.0.0 (linux64) logging started Fri May  1 14:37:26 2015


Gurobi 6.0.0 (linux64) logging started Fri May  1 14:47:24 2015


Gurobi 6.0.0 (linux64) logging started Fri May  1 15:14:05 2015


Gurobi 6.0.0 (linux64) logging started Fri May  1 15:16:55 2015


Gurobi 6.0.0 (linux64) logging started Fri May  1 15:18:21 2015


Gurobi 6.0.0 (linux64) logging started Mon May  4 10:53:38 2015


Gurobi 6.0.0 (linux64) logging started Mon May  4 11:18:18 2015


Gurobi 6.0.0 (linux64) logging started Mon May  4 12:38:16 2015


Gurobi 6.0.0 (linux64) logging started Mon May  4 12:39:07 2015


Gurobi 6.0.0 (linux64) logging started Mon May  4 12:39:38 2015


Gurobi 6.0.0 (linux64) logging started Mon May  4 12:42:56 2015


Gurobi 6.0.0 (linux64) logging started Mon May  4 12:46:08 2015


Gurobi 6.0.0 (linux64) logging started Mon May  4 12:47:00 2015


Gurobi 6.0.0 (linux64) logging started Mon May  4 12:52:28 2015


Gurobi 6.0.0 (linux64) logging started Mon May  4 12:55:19 2015


Gurobi 6.0.0 (linux64) logging started Mon May  4 13:01:00 2015


Gurobi 6.0.0 (linux64) logging started Mon May  4 13:02:52 2015


Gurobi 6.0.0 (linux64) logging started Mon May  4 13:04:30 2015


Gurobi 6.0.0 (linux64) logging started Mon May  4 13:12:36 2015


Gurobi 6.0.0 (linux64) logging started Mon May  4 13:15:02 2015


Gurobi 6.0.0 (linux64) logging started Mon May  4 13:19:37 2015


Gurobi 6.0.0 (linux64) logging started Mon May  4 13:22:25 2015


Gurobi 6.0.0 (linux64) logging started Mon May  4 13:25:17 2015


Gurobi 6.0.0 (linux64) logging started Mon May  4 13:33:34 2015


Gurobi 6.0.0 (linux64) logging started Mon May  4 13:48:20 2015


Gurobi 6.0.0 (linux64) logging started Mon May  4 14:08:12 2015


Gurobi 6.0.0 (linux64) logging started Mon May  4 14:09:34 2015


Gurobi 6.0.0 (linux64) logging started Mon May  4 14:33:51 2015


Gurobi 6.0.0 (linux64) logging started Mon May  4 14:33:55 2015


Gurobi 6.0.0 (linux64) logging started Mon May  4 14:35:09 2015


Gurobi 6.0.0 (linux64) logging started Mon May  4 14:35:53 2015


Gurobi 6.0.0 (linux64) logging started Mon May  4 14:37:09 2015


Gurobi 6.0.0 (linux64) logging started Mon May  4 14:38:33 2015


Gurobi 6.0.0 (linux64) logging started Mon May  4 14:48:55 2015


Gurobi 6.0.0 (linux64) logging started Mon May  4 14:53:30 2015


Gurobi 6.0.0 (linux64) logging started Mon May  4 15:29:32 2015


Gurobi 6.0.0 (linux64) logging started Mon May  4 18:24:51 2015


Gurobi 6.0.0 (linux64) logging started Mon May  4 18:34:11 2015


Gurobi 6.0.0 (linux64) logging started Mon May  4 18:40:47 2015


Gurobi 6.0.0 (linux64) logging started Tue May  5 15:16:21 2015


Gurobi 6.0.0 (linux64) logging started Tue May  5 15:17:48 2015


Gurobi 6.0.0 (linux64) logging started Tue May  5 15:22:59 2015


Gurobi 6.0.0 (linux64) logging started Tue May  5 15:31:05 2015


Gurobi 6.0.0 (linux64) logging started Tue May  5 16:16:48 2015


Gurobi 6.0.0 (linux64) logging started Tue May  5 16:18:45 2015


Gurobi 6.0.0 (linux64) logging started Tue May  5 16:22:18 2015


Gurobi 6.0.0 (linux64) logging started Tue May  5 16:22:40 2015


Gurobi 6.0.0 (linux64) logging started Tue May  5 16:25:43 2015


Gurobi 6.0.0 (linux64) logging started Tue May  5 16:26:05 2015


Gurobi 6.0.0 (linux64) logging started Tue May  5 16:53:58 2015


Gurobi 6.0.0 (linux64) logging started Tue May  5 17:01:56 2015


Gurobi 6.0.0 (linux64) logging started Tue May  5 17:06:01 2015


Gurobi 6.0.0 (linux64) logging started Tue May  5 17:33:23 2015


Gurobi 6.0.0 (linux64) logging started Thu May  7 11:00:36 2015


Gurobi 6.0.0 (linux64) logging started Wed May 27 14:09:44 2015


Gurobi 6.0.0 (linux64) logging started Wed May 27 15:57:42 2015


Gurobi 6.0.0 (linux64) logging started Wed May 27 15:58:17 2015


Gurobi 6.0.0 (linux64) logging started Wed May 27 15:59:59 2015


Gurobi 6.0.0 (linux64) logging started Wed May 27 16:01:27 2015


Gurobi 6.0.0 (linux64) logging started Wed May 27 16:01:49 2015


Gurobi 6.0.0 (linux64) logging started Wed May 27 16:05:23 2015


Gurobi 6.0.0 (linux64) logging started Wed May 27 16:08:07 2015


Gurobi 6.0.0 (linux64) logging started Wed May 27 16:09:23 2015


Gurobi 6.0.0 (linux64) logging started Wed May 27 16:09:53 2015


Gurobi 6.0.0 (linux64) logging started Wed May 27 16:11:47 2015


Gurobi 6.0.0 (linux64) logging started Wed May 27 16:19:00 2015


Gurobi 6.0.0 (linux64) logging started Wed May 27 16:20:02 2015


Gurobi 6.0.0 (linux64) logging started Wed May 27 16:23:07 2015


Gurobi 6.0.0 (linux64) logging started Wed May 27 16:44:31 2015


Gurobi 6.0.0 (linux64) logging started Thu May 28 09:17:35 2015


Gurobi 6.0.0 (linux64) logging started Thu May 28 10:01:16 2015


Gurobi 6.0.0 (linux64) logging started Thu May 28 10:01:40 2015


Gurobi 6.0.0 (linux64) logging started Thu May 28 11:34:24 2015


Gurobi 6.0.0 (linux64) logging started Thu May 28 12:30:49 2015


Gurobi 6.0.0 (linux64) logging started Thu May 28 13:11:56 2015


Gurobi 6.0.0 (linux64) logging started Thu May 28 13:48:34 2015


Gurobi 6.0.0 (linux64) logging started Thu May 28 13:49:25 2015


Gurobi 6.0.0 (linux64) logging started Thu May 28 13:49:47 2015


Gurobi 6.0.0 (linux64) logging started Thu Jun 18 11:35:57 2015


Gurobi 6.0.0 (linux64) logging started Thu Jun 18 11:36:01 2015


Gurobi 6.0.0 (linux64) logging started Thu Jun 18 11:51:13 2015


Gurobi 6.0.0 (linux64) logging started Thu Jun 18 12:01:03 2015


Gurobi 6.0.0 (linux64) logging started Thu Jun 18 13:38:42 2015


Gurobi 6.0.0 (linux64) logging started Thu Jun 18 13:38:49 2015


Gurobi 6.0.0 (linux64) logging started Thu Jun 18 13:39:48 2015


Gurobi 6.0.0 (linux64) logging started Thu Jun 18 13:40:54 2015


Gurobi 6.0.0 (linux64) logging started Thu Jun 18 13:46:20 2015


Gurobi 6.0.0 (linux64) logging started Thu Jun 18 13:49:31 2015


Gurobi 6.0.0 (linux64) logging started Thu Jun 18 13:56:44 2015


Gurobi 6.0.0 (linux64) logging started Thu Jun 18 14:02:53 2015


Gurobi 6.0.0 (linux64) logging started Thu Jun 18 14:09:47 2015


Gurobi 6.0.0 (linux64) logging started Thu Jun 18 15:41:38 2015


Gurobi 6.0.0 (linux64) logging started Fri Jun 19 08:39:53 2015


Gurobi 6.0.0 (linux64) logging started Fri Jun 19 10:59:07 2015


Gurobi 6.0.0 (linux64) logging started Fri Jun 19 11:07:03 2015


Gurobi 6.0.0 (linux64) logging started Fri Jun 19 11:28:05 2015


Gurobi 6.0.0 (linux64) logging started Fri Jun 19 11:43:44 2015


Gurobi 6.0.0 (linux64) logging started Fri Jun 19 11:44:44 2015


Gurobi 6.0.0 (linux64) logging started Fri Jun 19 11:53:39 2015


Gurobi 6.0.0 (linux64) logging started Fri Jun 19 11:55:44 2015


Gurobi 6.0.0 (linux64) logging started Fri Jun 19 12:38:39 2015


Gurobi 6.0.0 (linux64) logging started Fri Jun 19 13:00:20 2015


Gurobi 6.0.0 (linux64) logging started Fri Jun 19 13:58:22 2015


Gurobi 6.0.0 (linux64) logging started Fri Jun 19 13:58:30 2015


Gurobi 6.0.0 (linux64) logging started Fri Jun 19 14:19:15 2015


Gurobi 6.0.0 (linux64) logging started Fri Jun 19 15:19:41 2015


Gurobi 6.0.0 (linux64) logging started Fri Jun 19 15:41:06 2015


Gurobi 6.0.0 (linux64) logging started Fri Jun 19 15:41:53 2015


Gurobi 6.0.0 (linux64) logging started Fri Jun 19 15:44:23 2015


Gurobi 6.0.0 (linux64) logging started Fri Jun 19 16:06:38 2015


Gurobi 6.0.0 (linux64) logging started Fri Jun 19 16:11:09 2015


Gurobi 6.0.0 (linux64) logging started Fri Jun 19 16:13:24 2015


Gurobi 6.0.0 (linux64) logging started Fri Jun 19 16:14:36 2015


Gurobi 6.0.0 (linux64) logging started Fri Jun 19 16:16:05 2015


Gurobi 6.0.0 (linux64) logging started Fri Jun 19 16:17:36 2015


Gurobi 6.0.0 (linux64) logging started Fri Jun 19 16:19:18 2015


Gurobi 6.0.0 (linux64) logging started Fri Jun 19 16:21:12 2015


Gurobi 6.0.0 (linux64) logging started Fri Jun 19 16:22:52 2015


Gurobi 6.0.0 (linux64) logging started Fri Jun 19 16:25:54 2015


Gurobi 6.0.0 (linux64) logging started Fri Jun 19 16:27:08 2015


Gurobi 6.0.0 (linux64) logging started Fri Jun 19 16:28:19 2015


Gurobi 6.0.0 (linux64) logging started Fri Jun 19 16:32:32 2015


Gurobi 6.0.0 (linux64) logging started Fri Jun 19 16:39:07 2015


Gurobi 6.0.0 (linux64) logging started Mon Jun 22 13:57:10 2015


Gurobi 6.0.0 (linux64) logging started Mon Jun 22 13:57:35 2015


Gurobi 6.0.0 (linux64) logging started Mon Jun 22 13:58:22 2015


Gurobi 6.0.0 (linux64) logging started Mon Jun 22 14:13:27 2015


Gurobi 6.0.0 (linux64) logging started Mon Jun 22 14:13:43 2015


Gurobi 6.0.0 (linux64) logging started Mon Jun 22 14:13:55 2015


Gurobi 6.0.0 (linux64) logging started Mon Jun 22 14:15:47 2015


Gurobi 6.0.0 (linux64) logging started Mon Jun 22 14:17:27 2015


Gurobi 6.0.0 (linux64) logging started Mon Jun 22 14:21:06 2015


Gurobi 6.0.0 (linux64) logging started Mon Jun 22 14:24:33 2015


Gurobi 6.0.0 (linux64) logging started Mon Jun 22 15:57:33 2015


Gurobi 6.0.0 (linux64) logging started Tue Jun 23 14:16:20 2015


Gurobi 6.0.0 (linux64) logging started Tue Jun 23 14:16:39 2015


Gurobi 6.0.0 (linux64) logging started Tue Jun 23 14:25:10 2015


Gurobi 6.0.0 (linux64) logging started Tue Jun 23 15:15:38 2015


Gurobi 6.0.0 (linux64) logging started Tue Jun 23 15:29:11 2015


Gurobi 6.0.0 (linux64) logging started Tue Jun 23 15:37:31 2015


Gurobi 6.0.0 (linux64) logging started Tue Jun 23 15:39:07 2015


Gurobi 6.0.0 (linux64) logging started Tue Jun 23 16:34:23 2015


Gurobi 6.0.0 (linux64) logging started Tue Jun 23 16:35:44 2015


Gurobi 6.0.0 (linux64) logging started Tue Jun 23 16:38:44 2015


Gurobi 6.0.0 (linux64) logging started Wed Jun 24 08:45:06 2015


Gurobi 6.0.0 (linux64) logging started Wed Jun 24 08:49:56 2015


Gurobi 6.0.0 (linux64) logging started Wed Jun 24 08:54:53 2015


Gurobi 6.0.0 (linux64) logging started Wed Jun 24 09:19:01 2015


Gurobi 6.0.0 (linux64) logging started Wed Jun 24 09:26:20 2015


Gurobi 6.0.0 (linux64) logging started Wed Jun 24 10:20:55 2015


Gurobi 6.0.0 (linux64) logging started Wed Jun 24 13:29:40 2015


Gurobi 6.0.0 (linux64) logging started Wed Jun 24 15:19:47 2015


Gurobi 6.0.0 (linux64) logging started Wed Jun 24 15:23:09 2015


Gurobi 6.0.0 (linux64) logging started Thu Jun 25 11:06:39 2015


Gurobi 6.0.0 (linux64) logging started Thu Jun 25 13:38:17 2015


Gurobi 6.0.0 (linux64) logging started Thu Jun 25 13:45:19 2015


Gurobi 6.0.0 (linux64) logging started Thu Jun 25 13:57:58 2015


Gurobi 6.0.0 (linux64) logging started Thu Jun 25 13:58:23 2015


Gurobi 6.0.0 (linux64) logging started Thu Jun 25 14:10:40 2015


Gurobi 6.0.0 (linux64) logging started Thu Jun 25 14:11:45 2015


Gurobi 6.0.0 (linux64) logging started Thu Jun 25 14:12:24 2015


Gurobi 6.0.0 (linux64) logging started Thu Jun 25 14:14:20 2015


Gurobi 6.0.0 (linux64) logging started Thu Jun 25 14:16:51 2015


Gurobi 6.0.0 (linux64) logging started Thu Jun 25 14:18:16 2015


Gurobi 6.0.0 (linux64) logging started Thu Jun 25 14:20:33 2015


Gurobi 6.0.0 (linux64) logging started Thu Jun 25 14:22:57 2015


Gurobi 6.0.0 (linux64) logging started Thu Jun 25 15:01:19 2015


Gurobi 6.0.0 (linux64) logging started Thu Jun 25 15:03:56 2015


Gurobi 6.0.0 (linux64) logging started Thu Jun 25 15:26:09 2015


Gurobi 6.0.0 (linux64) logging started Thu Jun 25 15:32:19 2015


Gurobi 6.0.0 (linux64) logging started Thu Jun 25 15:33:09 2015


Gurobi 6.0.0 (linux64) logging started Thu Jun 25 15:48:28 2015


Gurobi 6.0.0 (linux64) logging started Thu Jun 25 15:52:00 2015


Gurobi 6.0.0 (linux64) logging started Thu Jun 25 15:53:19 2015


Gurobi 6.0.0 (linux64) logging started Fri Jun 26 11:53:56 2015


Gurobi 6.0.0 (linux64) logging started Fri Jun 26 12:08:55 2015


Gurobi 6.0.0 (linux64) logging started Fri Jun 26 12:45:53 2015


Gurobi 6.0.0 (linux64) logging started Fri Jun 26 12:48:14 2015


Gurobi 6.0.0 (linux64) logging started Fri Jun 26 12:49:23 2015


Gurobi 6.0.0 (linux64) logging started Fri Jun 26 12:50:05 2015


Gurobi 6.0.0 (linux64) logging started Fri Jun 26 13:08:43 2015


Gurobi 6.0.0 (linux64) logging started Fri Jun 26 13:09:11 2015


Gurobi 6.0.0 (linux64) logging started Fri Jun 26 13:09:44 2015


Gurobi 6.0.0 (linux64) logging started Fri Jun 26 13:10:24 2015


Gurobi 6.0.0 (linux64) logging started Fri Jun 26 13:12:25 2015


Gurobi 6.0.0 (linux64) logging started Fri Jun 26 13:19:05 2015


Gurobi 6.0.0 (linux64) logging started Fri Jun 26 13:20:37 2015


Gurobi 6.0.0 (linux64) logging started Fri Jun 26 13:30:20 2015


Gurobi 6.0.0 (linux64) logging started Fri Jun 26 13:37:08 2015


Gurobi 6.0.0 (linux64) logging started Fri Jun 26 13:47:05 2015


Gurobi 6.0.0 (linux64) logging started Fri Jun 26 13:50:45 2015


Gurobi 6.0.0 (linux64) logging started Fri Jun 26 13:51:45 2015


Gurobi 6.0.0 (linux64) logging started Fri Jun 26 13:52:28 2015


Gurobi 6.0.0 (linux64) logging started Fri Jun 26 13:55:11 2015


Gurobi 6.0.0 (linux64) logging started Fri Jun 26 13:58:50 2015


Gurobi 6.0.0 (linux64) logging started Fri Jun 26 14:01:56 2015


Gurobi 6.0.0 (linux64) logging started Fri Jun 26 14:03:18 2015


Gurobi 6.0.0 (linux64) logging started Fri Jun 26 14:04:46 2015


Gurobi 6.0.0 (linux64) logging started Fri Jun 26 14:07:05 2015


Gurobi 6.0.0 (linux64) logging started Fri Jun 26 14:21:39 2015


Gurobi 6.0.0 (linux64) logging started Mon Jun 29 09:00:00 2015


Gurobi 6.0.0 (linux64) logging started Mon Jun 29 09:19:18 2015


Gurobi 6.0.0 (linux64) logging started Mon Jun 29 09:27:38 2015


Gurobi 6.0.0 (linux64) logging started Mon Jun 29 09:36:59 2015


Gurobi 6.0.0 (linux64) logging started Mon Jun 29 09:39:50 2015


Gurobi 6.0.0 (linux64) logging started Mon Jun 29 09:47:55 2015


Gurobi 6.0.0 (linux64) logging started Mon Jun 29 09:54:56 2015


Gurobi 6.0.0 (linux64) logging started Mon Jun 29 09:57:25 2015


Gurobi 6.0.0 (linux64) logging started Mon Jun 29 10:05:12 2015


Gurobi 6.0.0 (linux64) logging started Mon Jun 29 10:13:19 2015


Gurobi 6.0.0 (linux64) logging started Mon Jun 29 10:13:23 2015


Gurobi 6.0.0 (linux64) logging started Mon Jun 29 10:30:20 2015


Gurobi 6.0.0 (linux64) logging started Mon Jun 29 10:59:25 2015


Gurobi 6.0.0 (linux64) logging started Mon Jun 29 10:59:43 2015


Gurobi 6.0.0 (linux64) logging started Mon Jun 29 11:08:36 2015


Gurobi 6.0.0 (linux64) logging started Mon Jun 29 11:09:02 2015


Gurobi 6.0.0 (linux64) logging started Mon Jun 29 11:14:16 2015


Gurobi 6.0.0 (linux64) logging started Mon Jun 29 11:25:37 2015


Gurobi 6.0.0 (linux64) logging started Mon Jun 29 11:38:03 2015


Gurobi 6.0.0 (linux64) logging started Mon Jun 29 11:48:26 2015


Gurobi 6.0.0 (linux64) logging started Mon Jun 29 12:23:39 2015


Gurobi 6.0.0 (linux64) logging started Mon Jun 29 12:40:07 2015


Gurobi 6.0.0 (linux64) logging started Mon Jun 29 12:50:45 2015


Gurobi 6.0.0 (linux64) logging started Mon Jun 29 12:53:51 2015


Gurobi 6.0.0 (linux64) logging started Mon Jun 29 12:55:21 2015


Gurobi 6.0.0 (linux64) logging started Mon Jun 29 12:56:20 2015


Gurobi 6.0.0 (linux64) logging started Mon Jun 29 12:57:52 2015


Gurobi 6.0.0 (linux64) logging started Mon Jun 29 12:58:31 2015


Gurobi 6.0.0 (linux64) logging started Mon Jun 29 12:59:03 2015


Gurobi 6.0.0 (linux64) logging started Mon Jun 29 13:01:08 2015


Gurobi 6.0.0 (linux64) logging started Mon Jun 29 13:04:05 2015


Gurobi 6.0.0 (linux64) logging started Mon Jun 29 13:10:26 2015


Gurobi 6.0.0 (linux64) logging started Mon Jun 29 13:20:02 2015


Gurobi 6.0.0 (linux64) logging started Mon Jun 29 13:20:40 2015


Gurobi 6.0.0 (linux64) logging started Mon Jun 29 13:33:30 2015


Gurobi 6.0.0 (linux64) logging started Mon Jun 29 13:33:55 2015


Gurobi 6.0.0 (linux64) logging started Mon Jun 29 13:34:21 2015


Gurobi 6.0.0 (linux64) logging started Mon Jun 29 13:35:56 2015


Gurobi 6.0.0 (linux64) logging started Mon Jun 29 13:44:38 2015


Gurobi 6.0.0 (linux64) logging started Mon Jun 29 15:24:35 2015


Gurobi 6.0.0 (linux64) logging started Mon Jun 29 15:24:55 2015


Gurobi 6.0.0 (linux64) logging started Mon Jun 29 15:25:30 2015


Gurobi 6.0.0 (linux64) logging started Mon Jun 29 15:31:15 2015


Gurobi 6.0.0 (linux64) logging started Mon Jun 29 15:36:51 2015


Gurobi 6.0.0 (linux64) logging started Mon Jun 29 15:37:12 2015


Gurobi 6.0.0 (linux64) logging started Mon Jun 29 15:43:37 2015


Gurobi 6.0.0 (linux64) logging started Mon Jun 29 15:43:57 2015


Gurobi 6.0.0 (linux64) logging started Mon Jun 29 15:48:27 2015


Gurobi 6.0.0 (linux64) logging started Mon Jun 29 16:12:40 2015


Gurobi 6.0.0 (linux64) logging started Mon Jun 29 16:12:50 2015


Gurobi 6.0.0 (linux64) logging started Mon Jun 29 16:24:26 2015


Gurobi 6.0.0 (linux64) logging started Mon Jun 29 16:24:53 2015


Gurobi 6.0.0 (linux64) logging started Tue Jun 30 08:48:22 2015


Gurobi 6.0.0 (linux64) logging started Tue Jun 30 09:02:40 2015


Gurobi 6.0.0 (linux64) logging started Tue Jun 30 09:02:58 2015


Gurobi 6.0.0 (linux64) logging started Tue Jun 30 09:04:05 2015


Gurobi 6.0.0 (linux64) logging started Tue Jun 30 09:05:15 2015


Gurobi 6.0.0 (linux64) logging started Tue Jun 30 09:09:20 2015


Gurobi 6.0.0 (linux64) logging started Tue Jun 30 09:12:47 2015


Gurobi 6.0.0 (linux64) logging started Tue Jun 30 09:17:47 2015


Gurobi 6.0.0 (linux64) logging started Tue Jun 30 09:20:46 2015


Gurobi 6.0.0 (linux64) logging started Tue Jun 30 09:27:54 2015


Gurobi 6.0.0 (linux64) logging started Tue Jun 30 09:28:15 2015


Gurobi 6.0.0 (linux64) logging started Tue Jun 30 09:29:50 2015


Gurobi 6.0.0 (linux64) logging started Tue Jun 30 10:02:13 2015


Gurobi 6.0.0 (linux64) logging started Tue Jun 30 10:02:27 2015


Gurobi 6.0.0 (linux64) logging started Tue Jun 30 10:03:21 2015


Gurobi 6.0.0 (linux64) logging started Tue Jun 30 10:03:56 2015


Gurobi 6.0.0 (linux64) logging started Tue Jun 30 10:18:40 2015


Gurobi 6.0.0 (linux64) logging started Tue Jun 30 10:19:29 2015


Gurobi 6.0.0 (linux64) logging started Tue Jun 30 10:51:10 2015


Gurobi 6.0.0 (linux64) logging started Tue Jun 30 10:51:31 2015


Gurobi 6.0.0 (linux64) logging started Tue Jun 30 10:52:18 2015


Gurobi 6.0.0 (linux64) logging started Tue Jun 30 10:52:45 2015


Gurobi 6.0.0 (linux64) logging started Tue Jun 30 10:53:22 2015


Gurobi 6.0.0 (linux64) logging started Tue Jun 30 10:56:26 2015


Gurobi 6.0.0 (linux64) logging started Tue Jun 30 11:00:55 2015


Gurobi 6.0.0 (linux64) logging started Tue Jun 30 11:04:30 2015


Gurobi 6.0.0 (linux64) logging started Tue Jun 30 15:30:06 2015


Gurobi 6.0.0 (linux64) logging started Tue Jun 30 15:31:50 2015


Gurobi 6.0.0 (linux64) logging started Tue Jun 30 15:33:27 2015


Gurobi 6.0.0 (linux64) logging started Tue Jun 30 15:35:18 2015


Gurobi 6.0.0 (linux64) logging started Tue Jun 30 15:38:07 2015


Gurobi 6.0.0 (linux64) logging started Tue Jun 30 15:46:07 2015


Gurobi 6.0.0 (linux64) logging started Tue Jun 30 15:47:29 2015


Gurobi 6.0.0 (linux64) logging started Tue Jun 30 15:48:20 2015


Gurobi 6.0.0 (linux64) logging started Tue Jun 30 15:48:55 2015


Gurobi 6.0.0 (linux64) logging started Tue Jun 30 15:50:02 2015


Gurobi 6.0.0 (linux64) logging started Tue Jun 30 16:26:11 2015


Gurobi 6.0.0 (linux64) logging started Tue Jun 30 16:30:54 2015


Gurobi 6.0.0 (linux64) logging started Tue Jun 30 16:35:48 2015


Gurobi 6.0.0 (linux64) logging started Tue Jun 30 16:44:31 2015


Gurobi 6.0.0 (linux64) logging started Wed Jul  1 08:31:44 2015


Gurobi 6.0.0 (linux64) logging started Wed Jul  1 08:40:36 2015


Gurobi 6.0.0 (linux64) logging started Wed Jul  1 09:09:49 2015


Gurobi 6.0.0 (linux64) logging started Wed Jul  1 09:11:09 2015


Gurobi 6.0.0 (linux64) logging started Wed Jul  1 09:35:05 2015


Gurobi 6.0.0 (linux64) logging started Wed Jul  1 09:57:54 2015


Gurobi 6.0.0 (linux64) logging started Wed Jul  1 09:58:29 2015


Gurobi 6.0.0 (linux64) logging started Wed Jul  1 10:05:07 2015


Gurobi 6.0.0 (linux64) logging started Wed Jul  1 10:21:03 2015


Gurobi 6.0.0 (linux64) logging started Wed Jul  1 10:22:24 2015


Gurobi 6.0.0 (linux64) logging started Wed Jul  1 10:56:04 2015


Gurobi 6.0.0 (linux64) logging started Wed Jul  1 10:59:24 2015


Gurobi 6.0.0 (linux64) logging started Wed Jul  1 11:02:22 2015


Gurobi 6.0.0 (linux64) logging started Wed Jul  1 11:21:50 2015


Gurobi 6.0.0 (linux64) logging started Wed Jul  1 11:38:50 2015


Gurobi 6.0.0 (linux64) logging started Wed Jul  1 11:39:23 2015


Gurobi 6.0.0 (linux64) logging started Wed Jul  1 11:40:35 2015


Gurobi 6.0.0 (linux64) logging started Wed Jul  1 12:04:30 2015


Gurobi 6.0.0 (linux64) logging started Wed Jul  1 12:06:26 2015


Gurobi 6.0.0 (linux64) logging started Wed Jul  1 12:07:48 2015


Gurobi 6.0.0 (linux64) logging started Wed Jul  1 12:16:49 2015


Gurobi 6.0.0 (linux64) logging started Wed Jul  1 12:39:51 2015


Gurobi 6.0.0 (linux64) logging started Wed Jul  1 12:43:19 2015


Gurobi 6.0.0 (linux64) logging started Wed Jul  1 12:50:48 2015


Gurobi 6.0.0 (linux64) logging started Thu Jul  2 13:59:14 2015


Gurobi 6.0.0 (linux64) logging started Thu Jul  2 14:00:23 2015


Gurobi 6.0.0 (linux64) logging started Thu Jul  2 14:01:26 2015


Gurobi 6.0.0 (linux64) logging started Thu Jul  2 14:05:47 2015


Gurobi 6.0.0 (linux64) logging started Thu Jul  2 14:11:18 2015


Gurobi 6.0.0 (linux64) logging started Thu Jul  2 14:28:54 2015


Gurobi 6.0.0 (linux64) logging started Thu Jul  2 14:30:31 2015


Gurobi 6.0.0 (linux64) logging started Thu Jul  2 14:46:47 2015


Gurobi 6.0.0 (linux64) logging started Thu Jul  2 14:47:56 2015


Gurobi 6.0.0 (linux64) logging started Thu Jul  2 14:48:18 2015


Gurobi 6.0.0 (linux64) logging started Thu Jul  2 14:48:28 2015


Gurobi 6.0.0 (linux64) logging started Thu Jul  2 14:50:07 2015


Gurobi 6.0.0 (linux64) logging started Thu Jul  2 14:52:04 2015


Gurobi 6.0.0 (linux64) logging started Thu Jul  2 14:54:26 2015


Gurobi 6.0.0 (linux64) logging started Thu Jul  2 15:00:05 2015


Gurobi 6.0.0 (linux64) logging started Thu Jul  2 15:01:04 2015


Gurobi 6.0.0 (linux64) logging started Thu Jul  2 15:05:39 2015


Gurobi 6.0.0 (linux64) logging started Mon Jul  6 09:39:06 2015


Gurobi 6.0.0 (linux64) logging started Mon Jul  6 09:41:19 2015


Gurobi 6.0.0 (linux64) logging started Mon Jul  6 10:02:33 2015


Gurobi 6.0.0 (linux64) logging started Mon Jul  6 10:13:26 2015


Gurobi 6.0.0 (linux64) logging started Mon Jul  6 10:14:55 2015


Gurobi 6.0.0 (linux64) logging started Mon Jul  6 10:15:51 2015


Gurobi 6.0.0 (linux64) logging started Mon Jul  6 10:19:05 2015


Gurobi 6.0.0 (linux64) logging started Mon Jul  6 10:22:00 2015


Gurobi 6.0.0 (linux64) logging started Mon Jul  6 10:27:52 2015


Gurobi 6.0.0 (linux64) logging started Mon Jul  6 10:32:01 2015


Gurobi 6.0.0 (linux64) logging started Mon Jul  6 10:33:34 2015


Gurobi 6.0.0 (linux64) logging started Mon Jul  6 10:36:36 2015


Gurobi 6.0.0 (linux64) logging started Mon Jul  6 10:42:43 2015


Gurobi 6.0.0 (linux64) logging started Mon Jul  6 10:51:49 2015


Gurobi 6.0.0 (linux64) logging started Mon Jul  6 10:58:34 2015


Gurobi 6.0.0 (linux64) logging started Mon Jul  6 11:01:56 2015


Gurobi 6.0.0 (linux64) logging started Mon Jul  6 11:14:16 2015


Gurobi 6.0.0 (linux64) logging started Mon Jul  6 11:14:32 2015


Gurobi 6.0.0 (linux64) logging started Mon Jul  6 11:14:51 2015


Gurobi 6.0.0 (linux64) logging started Mon Jul  6 11:18:27 2015


Gurobi 6.0.0 (linux64) logging started Mon Jul  6 11:20:25 2015


Gurobi 6.0.0 (linux64) logging started Mon Jul  6 11:42:41 2015


Gurobi 6.0.0 (linux64) logging started Mon Jul  6 11:54:17 2015


Gurobi 6.0.0 (linux64) logging started Mon Jul  6 12:47:25 2015


Gurobi 6.0.0 (linux64) logging started Mon Jul  6 13:00:56 2015


Gurobi 6.0.0 (linux64) logging started Mon Jul  6 13:12:11 2015


Gurobi 6.0.0 (linux64) logging started Mon Jul  6 13:12:45 2015


Gurobi 6.0.0 (linux64) logging started Mon Jul  6 13:22:38 2015


Gurobi 6.0.0 (linux64) logging started Mon Jul  6 13:25:18 2015


Gurobi 6.0.0 (linux64) logging started Mon Jul  6 13:35:09 2015


Gurobi 6.0.0 (linux64) logging started Mon Jul  6 14:29:34 2015


Gurobi 6.0.0 (linux64) logging started Mon Jul  6 14:30:46 2015


Gurobi 6.0.0 (linux64) logging started Mon Jul  6 14:33:51 2015


Gurobi 6.0.0 (linux64) logging started Mon Jul  6 14:34:47 2015


Gurobi 6.0.0 (linux64) logging started Mon Jul  6 15:18:02 2015


Gurobi 6.0.0 (linux64) logging started Mon Jul  6 15:18:52 2015


Gurobi 6.0.0 (linux64) logging started Mon Jul  6 15:22:06 2015


Gurobi 6.0.0 (linux64) logging started Mon Jul  6 15:39:25 2015


Gurobi 6.0.0 (linux64) logging started Mon Jul  6 15:40:05 2015


Gurobi 6.0.0 (linux64) logging started Mon Jul  6 15:41:10 2015


Gurobi 6.0.0 (linux64) logging started Mon Jul  6 15:42:02 2015


Gurobi 6.0.0 (linux64) logging started Tue Jul  7 13:32:31 2015


Gurobi 6.0.0 (linux64) logging started Tue Jul  7 13:33:31 2015


Gurobi 6.0.0 (linux64) logging started Tue Jul  7 13:41:05 2015


Gurobi 6.0.0 (linux64) logging started Tue Jul  7 15:07:47 2015


Gurobi 6.0.0 (linux64) logging started Tue Jul  7 15:14:11 2015


Gurobi 6.0.0 (linux64) logging started Tue Jul  7 15:28:26 2015


Gurobi 6.0.0 (linux64) logging started Tue Jul  7 15:39:16 2015


Gurobi 6.0.0 (linux64) logging started Tue Jul  7 15:43:23 2015


Gurobi 6.0.0 (linux64) logging started Tue Jul  7 15:49:00 2015


Gurobi 6.0.0 (linux64) logging started Tue Jul  7 15:49:32 2015


Gurobi 6.0.0 (linux64) logging started Tue Jul  7 16:11:05 2015


Gurobi 6.0.0 (linux64) logging started Tue Jul  7 16:12:47 2015


Gurobi 6.0.0 (linux64) logging started Tue Jul  7 16:12:56 2015


Gurobi 6.0.0 (linux64) logging started Wed Jul  8 09:52:54 2015


Gurobi 6.0.0 (linux64) logging started Wed Jul  8 10:04:54 2015


Gurobi 6.0.0 (linux64) logging started Wed Jul  8 10:06:32 2015


Gurobi 6.0.0 (linux64) logging started Wed Jul  8 11:07:42 2015


Gurobi 6.0.0 (linux64) logging started Wed Jul  8 11:08:43 2015


Gurobi 6.0.0 (linux64) logging started Wed Jul  8 11:09:40 2015


Gurobi 6.0.0 (linux64) logging started Wed Jul  8 11:10:03 2015


Gurobi 6.0.0 (linux64) logging started Wed Jul  8 11:10:38 2015


Gurobi 6.0.0 (linux64) logging started Wed Jul  8 11:11:34 2015


Gurobi 6.0.0 (linux64) logging started Wed Jul  8 11:19:31 2015


Gurobi 6.0.0 (linux64) logging started Wed Jul  8 11:21:37 2015


Gurobi 6.0.0 (linux64) logging started Wed Jul  8 11:28:48 2015


Gurobi 6.0.0 (linux64) logging started Wed Jul  8 11:29:32 2015


Gurobi 6.0.0 (linux64) logging started Wed Jul  8 11:30:25 2015


Gurobi 6.0.0 (linux64) logging started Wed Jul  8 11:33:21 2015


Gurobi 6.0.0 (linux64) logging started Wed Jul  8 11:34:33 2015


Gurobi 6.0.0 (linux64) logging started Wed Jul  8 11:35:24 2015


Gurobi 6.0.0 (linux64) logging started Wed Jul  8 11:36:44 2015


Gurobi 6.0.0 (linux64) logging started Wed Jul  8 11:37:41 2015


Gurobi 6.0.0 (linux64) logging started Wed Jul  8 11:39:22 2015


Gurobi 6.0.0 (linux64) logging started Wed Jul  8 11:52:55 2015


Gurobi 6.0.0 (linux64) logging started Wed Jul  8 11:55:48 2015


Gurobi 6.0.0 (linux64) logging started Wed Jul  8 12:01:48 2015


Gurobi 6.0.0 (linux64) logging started Wed Jul  8 12:10:39 2015


Gurobi 6.0.0 (linux64) logging started Wed Jul  8 12:28:47 2015


Gurobi 6.0.0 (linux64) logging started Wed Jul  8 12:29:03 2015


Gurobi 6.0.0 (linux64) logging started Wed Jul  8 12:30:15 2015


Gurobi 6.0.0 (linux64) logging started Wed Jul  8 12:40:54 2015


Gurobi 6.0.0 (linux64) logging started Wed Jul  8 13:54:42 2015


Gurobi 6.0.0 (linux64) logging started Wed Jul  8 13:55:23 2015


Gurobi 6.0.0 (linux64) logging started Wed Jul  8 13:58:50 2015


Gurobi 6.0.0 (linux64) logging started Wed Jul  8 14:21:13 2015


Gurobi 6.0.0 (linux64) logging started Wed Jul  8 14:31:38 2015


Gurobi 6.0.0 (linux64) logging started Wed Jul  8 14:35:50 2015


Gurobi 6.0.0 (linux64) logging started Wed Jul  8 14:41:15 2015


Gurobi 6.0.0 (linux64) logging started Wed Jul  8 14:56:06 2015


Gurobi 6.0.0 (linux64) logging started Wed Jul  8 15:15:43 2015


Gurobi 6.0.0 (linux64) logging started Wed Jul  8 15:32:54 2015


Gurobi 6.0.0 (linux64) logging started Wed Jul  8 15:33:17 2015


Gurobi 6.0.0 (linux64) logging started Wed Jul  8 15:41:29 2015


Gurobi 6.0.0 (linux64) logging started Wed Jul  8 15:43:09 2015


Gurobi 6.0.0 (linux64) logging started Wed Jul  8 15:43:39 2015


Gurobi 6.0.0 (linux64) logging started Wed Jul  8 15:45:26 2015


Gurobi 6.0.0 (linux64) logging started Wed Jul  8 16:30:44 2015


Gurobi 6.0.0 (linux64) logging started Wed Jul  8 17:07:48 2015


Gurobi 6.0.0 (linux64) logging started Wed Jul  8 17:11:43 2015


Gurobi 6.0.0 (linux64) logging started Wed Jul  8 17:12:21 2015


Gurobi 6.0.0 (linux64) logging started Wed Jul  8 17:19:52 2015


Gurobi 6.0.0 (linux64) logging started Wed Jul  8 17:28:02 2015


Gurobi 6.0.0 (linux64) logging started Wed Jul  8 17:28:56 2015


Gurobi 6.0.0 (linux64) logging started Wed Jul  8 17:29:18 2015


Gurobi 6.0.0 (linux64) logging started Wed Jul  8 17:29:48 2015


Gurobi 6.0.0 (linux64) logging started Thu Jul  9 08:54:06 2015


Gurobi 6.0.0 (linux64) logging started Thu Jul  9 09:22:42 2015


Gurobi 6.0.0 (linux64) logging started Mon Jul 13 12:26:22 2015

